<instance format="XCSP3" type="CSP">
  <variables>
    <var id="x0"> 1 6 9 15 16 </var>
    <var id="x1"> 5 6 9 </var>
    <var id="x2"> 6 15 </var>
    <var id="x3"> 5 13 15 16 </var>
    <var id="x4"> 0 1 6 16 </var>
    <var id="x5"> 0 1 16 </var>
    <var id="x6"> 0 5 9 </var>
    <var id="x7"> 0 1 9 16 </var>
    <var id="x8"> 1 8 16 </var>
    <var id="x9"> 10 </var>
    <var id="x10"> 1 3 8 11 </var>
    <var id="x11"> 3 8 10 </var>
    <var id="x12"> 0 1 3 10 16 </var>
    <var id="x13"> 0 1 16 </var>
    <var id="x14"> 0 10 11 </var>
    <var id="x15"> 6 8 15..17 </var>
    <var id="x16"> 5 6 8 17 </var>
    <var id="x17"> 4 6 8 16 </var>
    <var id="x18"> 6 10 16 </var>
    <var id="x19"> 4 6 10 15 </var>
    <var id="x20"> 4 8 10 16 17 </var>
    <var id="x21"> 5 6 17 </var>
    <var id="x22"> 5 10 17 </var>
    <var id="x23"> 1 5 6 11 </var>
    <var id="x24"> 6 10 14 </var>
    <var id="x25"> 0..2 </var>
    <var id="x26"> 0 1 6 </var>
    <var id="x27"> 2 5 6 14 </var>
    <var id="x28"> 5 11 </var>
    <var id="x29"> 0 1 10 14 </var>
    <var id="x30"> 0 5 10 11 </var>
    <var id="x31"> 6 9 14 16 </var>
    <var id="x32"> 3 12 13 15 </var>
    <var id="x33"> 6 9 16 </var>
    <var id="x34"> 3 6 14 16 </var>
    <var id="x35"> 6 9 15 </var>
    <var id="x36"> 6 9 12 13 </var>
    <var id="x37"> 9 12 </var>
    <var id="x38"> 9 14 16 </var>
    <var id="x39"> 4 5 9 12 </var>
    <var id="x40"> 1 12 15 </var>
    <var id="x41"> 3 15 17 </var>
    <var id="x42"> 1 3 12 15 17 </var>
    <var id="x43"> 4 5 15 17 </var>
    <var id="x44"> 1 3 </var>
    <var id="x45"> 3 5 9 17 </var>
    <var id="x46"> 3..5 9 12 15 </var>
    <var id="x47"> 6 9 14 17 </var>
    <var id="x48"> 6 9 11 14 </var>
    <var id="x49"> 6 10 14 17 </var>
    <var id="x50"> 6 9 </var>
    <var id="x51"> 6 9 14 17 </var>
    <var id="x52"> 6 7 14 </var>
    <var id="x53"> 10 14 17 </var>
    <var id="x54"> 6 8 11 13 </var>
    <var id="x55"> 2 4 8 13 </var>
    <var id="x56"> 4 8 9 11 </var>
    <var id="x57"> 2 4 6 9 11 </var>
    <var id="x58"> 2 6 14 </var>
    <var id="x59"> 4 8 14 </var>
    <var id="x60"> 6 9 11 13 </var>
    <var id="x61"> 8 9 14 </var>
    <var id="x62"> 0 1 10 </var>
    <var id="x63"> 0 1 14 </var>
    <var id="x64"> 8 10 14 </var>
    <var id="x65"> 0 1 7 10 14 </var>
    <var id="x66"> 8 </var>
    <var id="x67"> 0 2 10 </var>
    <var id="x68"> 0..2 7 14 </var>
    <var id="x69"> 7 13 </var>
    <var id="x70"> 2 5 6 </var>
    <var id="x71"> 0 6 11 16 </var>
    <var id="x72"> 0 5 6 11 16 </var>
    <var id="x73"> 0 6 8 16 </var>
    <var id="x74"> 2 5 8 16 </var>
    <var id="x75"> 0 2 6 11 </var>
    <var id="x76"> 0 8 16 </var>
    <var id="x77"> 6 9 14 </var>
    <var id="x78"> 0 1 6 </var>
    <var id="x79"> 0 1 6 9 14 </var>
    <var id="x80"> 1 3 6 8 17 </var>
    <var id="x81"> 0 1 3 17 </var>
    <var id="x82"> 8 17 </var>
    <var id="x83"> 3 6 9 14 17 </var>
    <var id="x84"> 6 9 17 </var>
    <var id="x85"> 5 6 9 12 </var>
    <var id="x86"> 1 6 11 12 </var>
    <var id="x87"> 1 5 6 9 11 </var>
    <var id="x88"> 1 5 6 8 11 17 </var>
    <var id="x89"> 1 6 8 9 </var>
    <var id="x90"> 1 8 17 </var>
    <var id="x91"> 5 6 9 11 12 17 </var>
    <var id="x92"> 5 9 11 12 17 </var>
    <var id="x93"> 6 14 15 </var>
    <var id="x94"> 0 12 15 </var>
    <var id="x95"> 5 15 </var>
    <var id="x96"> 5 6 9 14 </var>
    <var id="x97"> 5 9 12 15 </var>
    <var id="x98"> 0 6 7 12 14 </var>
    <var id="x99"> 5..7 9 12 </var>
    <var id="x100"> 0 7 9 14 </var>
    <var id="x101"> 1 6 9 14..17 </var>
    <var id="x102"> 5 6 9 14 </var>
    <var id="x103"> 1 5 6 9 14 16 </var>
    <var id="x104"> 1 15 17 </var>
    <var id="x105"> 5 15..17 </var>
    <var id="x106"> 1 6 14 16 </var>
    <var id="x107"> 5 6 9 14 17 </var>
    <var id="x108"> 1 6 14 16 </var>
    <var id="x109"> 0 9 16 </var>
    <var id="x110"> 0 3 12 13 17 </var>
    <var id="x111"> 0 4 9 16 </var>
    <var id="x112"> 3 9 13 17 </var>
    <var id="x113"> 3 4 9 12 </var>
    <var id="x114"> 0 4 9 </var>
    <var id="x115"> 0 4 16 17 </var>
    <var id="x116"> 0 9 16 </var>
    <var id="x117"> 1 16 17 </var>
    <var id="x118"> 4 10 </var>
    <var id="x119"> 0 1 10 11 16 </var>
    <var id="x120"> 1 11 17 </var>
    <var id="x121"> 4 16 17 </var>
    <var id="x122"> 7 11 17 </var>
    <var id="x123"> 0 7 10 11 17 </var>
    <var id="x124"> 0 1 7 16 </var>
    <var id="x125"> 1 6 14 17 </var>
    <var id="x126"> 1 6 12 </var>
    <var id="x127"> 1 3 6 17 </var>
    <var id="x128"> 1..3 12 17 </var>
    <var id="x129"> 3 12 </var>
    <var id="x130"> 2 6 </var>
    <var id="x131"> 1 2 6 7 12 14 </var>
    <var id="x132"> 7 12 17 </var>
    <var id="x133"> 8 15 16 </var>
    <var id="x134"> 0 10 12 15 16 </var>
    <var id="x135"> 0 10 16 </var>
    <var id="x136"> 2 </var>
    <var id="x137"> 4 8 12 15 </var>
    <var id="x138"> 0 2 4 10 15 </var>
    <var id="x139"> 0 2 12 16 </var>
    <var id="x140"> 0 8 16 </var>
  </variables>
  <constraints>
    <group>
      <allDifferent> %... </allDifferent>
      <args> x0 x1 x2 x3 x4 x5 x6 x7 </args>
      <args> x8 x9 x10 x11 x12 x13 x14 </args>
      <args> x15 x16 x17 x18 x19 x20 x21 x22 </args>
      <args> x23 x24 x25 x26 x27 x28 x29 x30 </args>
      <args> x31 x32 x33 x34 x35 x36 x37 x38 </args>
      <args> x39 x40 x41 x42 x43 x44 x45 x46 </args>
      <args> x47 x48 x49 x50 x51 x52 x53 </args>
      <args> x54 x55 x56 x57 x58 x59 x60 x61 </args>
      <args> x62 x63 x64 x65 x66 x67 x68 x69 </args>
      <args> x70 x71 x72 x73 x74 x75 x76 </args>
      <args> x77 x78 x79 x80 x81 x82 x83 x84 </args>
      <args> x85 x86 x87 x88 x89 x90 x91 x92 </args>
      <args> x93 x94 x95 x96 x97 x98 x99 x100 </args>
      <args> x101 x102 x103 x104 x105 x106 x107 x108 </args>
      <args> x109 x110 x111 x112 x113 x114 x115 x116 </args>
      <args> x117 x118 x119 x120 x121 x122 x123 x124 </args>
      <args> x125 x126 x127 x128 x129 x130 x131 x132 </args>
      <args> x133 x134 x135 x136 x137 x138 x139 x140 </args>
      <args> x0 x8 x15 x47 x101 x117 x125 x133 </args>
      <args> x1 x9 x39 x70 x77 x85 x102 x118 </args>
      <args> x40 x62 x71 x78 x86 x119 x126 x134 </args>
      <args> x31 x48 x63 x72 x79 x87 x103 x109 </args>
      <args> x10 x16 x23 x54 x80 x88 x120 x127 </args>
      <args> x2 x11 x24 x41 x49 x64 x93 </args>
      <args> x25 x32 x42 x81 x94 x104 x110 x128 </args>
      <args> x17 x26 x33 x50 x73 x89 x111 </args>
      <args> x3 x43 x55 x74 x82 x95 x105 x121 </args>
      <args> x4 x12 x18 x34 x44 x65 x106 x135 </args>
      <args> x27 x45 x51 x83 x96 x107 x112 x136 </args>
      <args> x28 x46 x56 x66 x97 x113 x129 x137 </args>
      <args> x19 x35 x57 x67 x75 x114 x130 x138 </args>
      <args> x13 x52 x58 x68 x98 x108 x131 x139 </args>
      <args> x5 x20 x29 x53 x59 x76 x90 x115 </args>
      <args> x21 x36 x60 x69 x84 x91 x99 x122 </args>
      <args> x6 x14 x22 x30 x37 x92 x123 x132 </args>
      <args> x7 x38 x61 x100 x116 x124 x140 </args>
    </group>
  </constraints>
</instance>

